c Output_time 26.03.2020 18:15:13_+0100 1585242913599734678
c ** Program information **
c program_name                          "QBRG_debug"
c version                               "0.3.20"
c date                                  "25.3.2020"
c gid_id                                "673970833836058123f633335630c185360d632e"
c author                                "Oliver Kullmann"
c url                                   "https://github.com/OKullmann/oklibrary/blob/master/Satisfiability/Transformers/Generators/Random/QBRG.cpp"
c ** Machine information **
c machine_name                          "chyna-Lenovo-G50-70"
c bogomips                              3791.08
c ** Compilation information **
c compiler_version                      "g++ 7.5.0"
c compilation_date                      "Mar_26_2020 11:16:30"
c compilation_options                   "--std=c++17 -pedantic -fmax-errors=5 -Wall -Wextra -g -D_GLIBCXX_DEBUG"
c NDEBUG                                0
c OPTIMIZE                              0
c ** Parameters **
c command-line                          "./QBRG_debug" "a40 e40 a40 40" "275*1,1|2-2,1|3-3,1|4-4,1" "" "1,t" ""
c output                                "QuBlRaGe_160_275_1585242913571379840.qdimacs"
c options                               "filtered,renamed"
c num_quantifier_blocks                 4
c  quantifier_blocks                    1:a1-40 2:e41-80 3:a81-120 4:e121-160
c num_clause-blocks                     1
c  clause-blocks                        275 * {1-40,1,1/2} | {41-80,1,1/2} | {81-120,1,1/2} | {121-160,1,1/2}
c num_e-seeds                           37+2=39
c  e-seeds                              1 0 1 0 5 160 2 40 0 40 1 40 0 40 1 275 4 1 1 1 1 2 2 2 1 1 2 3 3 1 1 2 4 4 1 1 2 1 1585242913571379193
p cnf 160 275
a 1 2 3 4 5 6 7 8 9 10 11 12 13 14 15 16 17 18 19 20 21 22 23 24 25 26 27 28 29 30 31 32 33 34 35 36 37 38 39 40 0
e 41 42 43 44 45 46 47 48 49 50 51 52 53 54 55 56 57 58 59 60 61 62 63 64 65 66 67 68 69 70 71 72 73 74 75 76 77 78 79 80 0
a 81 82 83 84 85 86 87 88 89 90 91 92 93 94 95 96 97 98 99 100 101 102 103 104 105 106 107 108 109 110 111 112 113 114 115 116 117 118 119 120 0
e 121 122 123 124 125 126 127 128 129 130 131 132 133 134 135 136 137 138 139 140 141 142 143 144 145 146 147 148 149 150 151 152 153 154 155 156 157 158 159 160 0
-14 45 -82 -121 0
-30 -64 -82 -121 0
-30 -78 -90 -121 0
17 -67 -97 -121 0
36 -50 97 -121 0
-17 -44 110 -121 0
-30 -79 119 -121 0
-2 51 -85 121 0
-11 45 -91 121 0
20 58 106 121 0
-6 44 83 -122 0
-27 51 86 -122 0
-5 -64 91 -122 0
21 -69 92 -122 0
18 64 -114 -122 0
-14 -58 -115 -122 0
12 -55 -118 -122 0
6 -41 -86 122 0
28 73 106 122 0
38 -48 119 122 0
21 -78 99 -123 0
39 67 100 -123 0
30 -66 110 -123 0
8 45 87 123 0
15 -76 89 -124 0
-9 -64 106 -124 0
-30 66 -111 -124 0
-40 71 -114 -124 0
29 -72 117 -124 0
27 55 112 124 0
6 -49 113 124 0
-11 -56 117 -125 0
-8 72 120 -125 0
27 -48 -96 125 0
18 -59 89 -126 0
-17 -50 -90 -126 0
30 56 104 -126 0
21 -73 112 -126 0
11 -78 -117 -126 0
21 78 114 126 0
30 43 81 -127 0
7 50 97 -127 0
-18 58 97 -127 0
-27 -70 99 -127 0
4 -74 86 127 0
25 67 -103 127 0
36 -57 -82 -128 0
-8 -71 -115 -128 0
-30 67 92 128 0
-9 49 -115 128 0
-2 68 -118 128 0
-32 -55 120 128 0
-1 47 87 -129 0
7 56 -100 -129 0
-40 -76 84 129 0
-30 -48 -100 129 0
-32 77 -100 129 0
9 52 89 -130 0
21 53 90 -130 0
24 78 -103 -130 0
8 77 -81 130 0
-4 70 84 130 0
39 -76 89 130 0
-29 -59 102 130 0
-33 68 -119 130 0
-40 58 120 130 0
6 -55 -84 -131 0
-33 -71 88 -131 0
35 -67 -94 -131 0
6 -76 -95 -131 0
7 -58 -99 131 0
18 52 100 131 0
3 79 -108 131 0
-17 42 -110 131 0
-33 72 112 131 0
-37 -49 113 131 0
37 73 -82 -132 0
5 -58 -90 -132 0
32 44 92 -132 0
-1 68 -95 -132 0
-14 52 111 -132 0
17 71 -113 -132 0
-32 -63 117 -132 0
-22 61 -88 132 0
12 -45 95 132 0
19 -77 100 132 0
-31 66 114 -133 0
9 75 96 133 0
11 -76 97 133 0
26 -41 -102 133 0
6 55 -104 133 0
-40 -53 106 133 0
18 56 -112 133 0
27 55 118 133 0
34 41 96 -134 0
-37 -47 -98 -134 0
-4 -75 87 134 0
10 -42 91 134 0
10 72 95 134 0
33 73 96 134 0
-13 58 -110 134 0
-11 65 82 -135 0
20 57 83 -135 0
3 78 -112 -135 0
14 74 112 -135 0
17 47 -103 135 0
25 52 85 -136 0
-29 -71 91 -136 0
1 -44 -97 -136 0
7 68 -109 -136 0
26 -51 -115 -136 0
-28 -48 120 -136 0
2 -47 95 136 0
-23 73 106 136 0
-10 -67 84 -137 0
23 52 100 -137 0
25 52 107 -137 0
1 -61 113 -137 0
-27 66 85 137 0
39 -55 -103 137 0
-8 -71 -109 137 0
7 -51 113 137 0
-38 75 88 -138 0
-17 -61 93 138 0
-33 -61 109 138 0
27 44 112 138 0
4 69 -120 138 0
-25 -58 120 138 0
5 -56 89 -139 0
25 58 -90 -139 0
15 -73 105 -139 0
25 -53 91 140 0
-16 -57 98 140 0
16 79 100 140 0
-22 65 -115 140 0
28 -68 -82 -141 0
3 -62 107 -141 0
-23 -73 110 -141 0
-22 69 112 -141 0
23 62 87 141 0
5 -56 -88 141 0
33 -68 -89 141 0
-7 -69 89 141 0
37 61 110 141 0
-10 44 117 141 0
19 -67 104 -142 0
29 -56 106 -142 0
-34 42 -116 -142 0
-11 63 99 142 0
11 -78 -114 142 0
6 -60 -81 -143 0
4 -80 96 -143 0
-36 -68 99 -143 0
-27 -80 -100 -143 0
-11 53 -83 143 0
-4 79 96 143 0
7 -70 104 143 0
-12 76 -114 143 0
-5 56 114 143 0
37 65 120 143 0
32 -68 -92 144 0
31 -69 -95 144 0
-27 64 110 144 0
-7 -61 -112 144 0
4 -52 -86 -145 0
6 72 -108 -145 0
33 66 83 145 0
15 70 100 145 0
-11 63 120 145 0
19 -61 95 -146 0
-13 53 -108 -146 0
-15 -70 114 -146 0
24 64 -86 146 0
28 -59 -103 146 0
-28 57 -107 146 0
-25 -48 109 146 0
-1 75 85 -147 0
36 -80 -85 147 0
19 -51 -101 147 0
-32 70 87 -148 0
17 -78 95 -148 0
8 64 102 -148 0
-23 -72 102 -148 0
-31 61 116 -148 0
14 44 -100 148 0
26 -64 100 148 0
-18 80 -102 148 0
21 -59 -106 148 0
-39 -75 113 148 0
3 -41 -86 -149 0
-6 -48 103 -149 0
-10 -44 -112 -149 0
-10 -50 -114 -149 0
-24 -57 -87 149 0
-36 -66 108 149 0
-16 -71 -109 149 0
7 46 109 149 0
-33 74 -88 -150 0
7 -48 115 -150 0
-31 51 105 150 0
18 60 108 150 0
19 74 -116 150 0
-26 -42 -119 150 0
-35 52 -88 -151 0
-6 69 -109 -151 0
-2 60 -119 -151 0
-5 -54 91 151 0
-35 49 -95 151 0
-5 44 103 151 0
3 -42 -110 151 0
32 70 -111 151 0
-14 72 -115 151 0
-38 -45 81 -152 0
12 72 89 -152 0
7 -77 92 -152 0
-29 -46 102 -152 0
-30 -65 -113 -152 0
5 -78 -116 -152 0
29 47 -96 152 0
36 -69 99 152 0
19 -72 -100 152 0
-29 -52 -105 152 0
-38 71 84 -153 0
40 -66 -96 -153 0
20 -50 -109 -153 0
-13 71 111 -153 0
10 -79 -106 153 0
-37 -51 -90 -154 0
-38 47 90 -154 0
28 -63 -91 -154 0
20 53 -110 -154 0
-6 43 -83 154 0
27 -59 91 154 0
23 -47 -110 154 0
36 -50 82 -155 0
-33 58 -87 -155 0
-10 -55 -98 -155 0
-36 67 103 -155 0
33 55 81 155 0
29 47 -86 155 0
-36 -55 -90 155 0
-14 43 93 155 0
28 -74 -113 155 0
32 -51 91 -156 0
29 54 83 156 0
39 -56 120 156 0
38 -77 -93 -157 0
-30 -74 -105 -157 0
37 -59 -111 -157 0
14 -61 119 -157 0
13 48 88 157 0
20 57 -106 157 0
11 50 113 157 0
7 53 120 157 0
32 53 81 -158 0
37 -70 87 -158 0
35 -60 88 -158 0
5 -52 95 -158 0
-8 53 -103 158 0
-22 78 111 158 0
-26 -64 118 158 0
10 69 87 -159 0
38 -69 93 -159 0
-22 -80 -107 -159 0
27 -68 89 159 0
39 52 100 159 0
29 -42 98 -160 0
9 -59 103 -160 0
-28 70 -107 -160 0
22 -61 111 -160 0
37 52 113 -160 0
17 50 -81 160 0
-5 80 95 160 0
-2 68 -96 160 0
40 56 -109 160 0
